Running HiGHS 1.4.0 [date: 1970-01-01, git hash: bcf6c0b22]
Copyright (c) 2022 ERGO-Code under MIT licence terms
LP   3HJ1N0F_model has 190 rows; 151 cols; 538 nonzeros
Presolving model
90 rows, 45 cols, 249 nonzeros
67 rows, 31 cols, 200 nonzeros
43 rows, 22 cols, 135 nonzeros
16 rows, 16 cols, 51 nonzeros
10 rows, 12 cols, 37 nonzeros
7 rows, 7 cols, 17 nonzeros
5 rows, 6 cols, 12 nonzeros
4 rows, 3 cols, 9 nonzeros
Presolve : Reductions: rows 4(-186); columns 3(-148); elements 9(-529)
Solving the presolved LP
Using EKK dual simplex solver - serial
  Iteration        Objective     Infeasibilities num(sum)
          0    -9.9999650717e+00 Ph1: 4(2.92915); Du: 1(9.99997) 0s
          1     1.7161346276e+05 Pr: 0(0) 0s
Solving the original LP from the solution after postsolve
Model   status      : Optimal
Simplex   iterations: 1
Objective value     : -1.7161346276e+05
HiGHS run time      :          0.00
